p wcnf 113 136 137 
1 96 -95 0 
1 4 96 0 
1 51 -13 0 
1 -53 -55 0 
1 -19 55 0 
1 26 -80 0 
1 13 103 0 
1 -25 -44 0 
1 -4 -35 0 
1 52 -58 0 
1 -12 58 0 
1 109 -18 0 
1 57 66 0 
1 45 36 0 
1 7 109 0 
1 -66 103 0 
1 -107 45 0 
1 30 -45 0 
1 -45 -38 0 
1 -88 -46 0 
1 -48 -46 0 
1 83 -9 0 
1 92 -83 0 
1 -81 31 0 
1 102 68 0 
1 57 -45 0 
1 -7 19 0 
1 -1 -111 0 
1 99 64 0 
1 -81 38 0 
1 80 106 0 
1 37 -77 0 
1 -28 46 0 
1 36 -113 0 
1 -47 107 0 
1 44 10 0 
1 -69 -18 0 
1 -94 -31 0 
1 -41 -39 0 
1 103 -81 0 
1 -10 5 0 
1 78 58 0 
1 -107 51 0 
1 15 8 0 
1 46 93 0 
1 63 26 0 
1 103 53 0 
1 43 59 0 
1 -15 -25 0 
1 -89 -52 0 
1 61 -55 0 
1 -90 -63 0 
1 79 -28 0 
1 -37 -111 0 
1 77 61 0 
1 -21 89 0 
1 94 -67 0 
1 -24 98 0 
1 -68 12 0 
1 1 13 0 
1 48 -78 0 
1 4 -50 0 
1 -31 18 0 
1 23 27 0 
1 -43 -17 0 
1 53 80 0 
1 57 -71 0 
1 37 -47 0 
1 -27 -19 0 
1 107 90 0 
1 24 -50 0 
1 -68 -89 0 
1 -15 -56 0 
1 112 31 0 
1 -72 -20 0 
1 100 -71 0 
1 21 -77 0 
1 26 5 0 
1 -15 -58 0 
1 60 59 0 
1 78 33 0 
1 -38 69 0 
1 107 36 0 
1 -77 86 0 
1 -2 58 0 
1 60 -10 0 
1 14 36 0 
1 39 48 0 
1 22 56 0 
1 -80 70 0 
1 -53 -39 0 
1 70 19 0 
1 -19 81 0 
1 61 -34 0 
1 65 25 0 
1 56 93 0 
1 -17 65 0 
1 -69 27 0 
1 -51 103 0 
1 23 80 0 
1 95 102 0 
1 17 -30 0 
1 69 -77 0 
1 28 86 0 
1 -99 40 0 
1 20 32 0 
1 46 61 0 
1 16 -90 0 
1 -17 -22 0 
1 -90 113 0 
1 -51 17 0 
1 106 -103 0 
1 74 32 0 
1 105 15 0 
1 -43 56 0 
1 -51 104 0 
1 -74 59 0 
1 -13 -36 0 
1 72 -31 0 
1 -102 19 0 
1 92 38 0 
1 -107 -96 0 
1 76 38 0 
1 109 28 0 
1 -61 68 0 
1 -20 -9 0 
1 59 36 0 
1 -8 -87 0 
1 -82 17 0 
1 -95 51 0 
1 -14 -16 0 
1 -56 -31 0 
1 96 -36 0 
1 -34 -11 0 
1 43 -74 0 
1 -41 -94 0 
